
Gurobi 8.1.1 (win64) logging started 11/28/19 06:00:44

Changed value of parameter LogFile to logs/drand/rlt/drand-05-110-0.log
   Prev: gurobi.log  Default: 
Changed value of parameter LogToConsole to 0
   Prev: 1  Min: 0  Max: 1  Default: 1
Changed value of parameter TimeLimit to 3600.0
   Prev: 1e+100  Min: 0.0  Max: 1e+100  Default: 1e+100
Optimize a model with 125720 rows, 42195 columns and 294496 nonzeros
Variable types: 0 continuous, 42195 integer (290 binary)
Coefficient statistics:
  Matrix range     [1e+00, 1e+00]
  Objective range  [1e+00, 1e+00]
  Bounds range     [1e+00, 1e+00]
  RHS range        [1e+00, 1e+00]
Presolve time: 1.39s
Presolved: 125720 rows, 42195 columns, 294496 nonzeros
Variable types: 0 continuous, 42195 integer (42195 binary)
Found heuristic solution: objective 7.0000000
Found heuristic solution: objective 6.0000000

Root simplex log...

Iteration    Objective       Primal Inf.    Dual Inf.      Time
    2049    1.5065357e+00   1.656390e+02   0.000000e+00      5s
    2840    1.5249018e+00   0.000000e+00   0.000000e+00      8s

Root relaxation: objective 1.524902e+00, 2840 iterations, 6.13 seconds

    Nodes    |    Current Node    |     Objective Bounds      |     Work
 Expl Unexpl |  Obj  Depth IntInf | Incumbent    BestBd   Gap | It/Node Time

     0     0    1.52490    0 1431    6.00000    1.52490  74.6%     -   10s
     0     0    1.60000    0 1296    6.00000    1.60000  73.3%     -   20s
     0     0    1.61497    0 1273    6.00000    1.61497  73.1%     -   36s
     0     0    1.71885    0 1116    6.00000    1.71885  71.4%     -   41s
     0     0    1.72779    0 1077    6.00000    1.72779  71.2%     -   56s
     0     0    1.76281    0 1050    6.00000    1.76281  70.6%     -   60s
     0     0    1.76533    0 1087    6.00000    1.76533  70.6%     -   90s
     0     0    1.79131    0 1054    6.00000    1.79131  70.1%     -   94s
     0     0    1.79371    0 1011    6.00000    1.79371  70.1%     -  100s
     0     0    1.81988    0  946    6.00000    1.81988  69.7%     -  105s
     0     0    1.82061    0  953    6.00000    1.82061  69.7%     -  112s
     0     0    1.84481    0  960    6.00000    1.84481  69.3%     -  118s
     0     0    1.84518    0  983    6.00000    1.84518  69.2%     -  124s
     0     0    1.86570    0 1032    6.00000    1.86570  68.9%     -  131s
     0     0    1.86619    0 1009    6.00000    1.86619  68.9%     -  151s
     0     0    1.88016    0  999    6.00000    1.88016  68.7%     -  156s
     0     0    1.88085    0 1027    6.00000    1.88085  68.7%     -  166s
     0     0    1.89082    0  998    6.00000    1.89082  68.5%     -  172s
     0     0    1.89852    0 1008    6.00000    1.89852  68.4%     -  188s
     0     0    1.89865    0 1008    6.00000    1.89865  68.4%     -  200s
     0     0    1.90721    0  967    6.00000    1.90721  68.2%     -  207s
     0     0    1.90802    0  996    6.00000    1.90802  68.2%     -  222s
     0     0    1.91525    0  982    6.00000    1.91525  68.1%     -  230s
     0     0    1.91542    0  986    6.00000    1.91542  68.1%     -  250s
     0     0    1.91917    0 1031    6.00000    1.91917  68.0%     -  257s
     0     0    1.92237    0 1036    6.00000    1.92237  68.0%     -  285s
     0     0    1.92245    0 1027    6.00000    1.92245  68.0%     -  301s
     0     0    1.92517    0 1039    6.00000    1.92517  67.9%     -  309s
     0     0    1.92526    0 1022    6.00000    1.92526  67.9%     -  387s
     0     0    1.92727    0 1007    6.00000    1.92727  67.9%     -  393s
     0     0    1.92739    0 1032    6.00000    1.92739  67.9%     -  397s
     0     0    1.92965    0 1070    6.00000    1.92965  67.8%     -  405s
     0     0    1.93159    0 1053    6.00000    1.93159  67.8%     -  415s
     0     0    1.93162    0 1067    6.00000    1.93162  67.8%     -  419s
     0     0    1.93276    0 1059    6.00000    1.93276  67.8%     -  427s
     0     0    1.93278    0 1079    6.00000    1.93278  67.8%     -  431s
     0     0    1.93453    0 1086    6.00000    1.93453  67.8%     -  439s
     0     0    1.93459    0 1075    6.00000    1.93459  67.8%     -  444s
     0     0    1.93590    0 1072    6.00000    1.93590  67.7%     -  450s
     0     0    1.93592    0 1057    6.00000    1.93592  67.7%     -  538s
     0     0    1.93727    0 1067    6.00000    1.93727  67.7%     -  545s
     0     0    1.93729    0 1074    6.00000    1.93729  67.7%     -  551s
     0     0    1.93884    0 1074    6.00000    1.93884  67.7%     -  560s
     0     0    1.93885    0 1082    6.00000    1.93885  67.7%     -  564s
     0     0    1.93987    0 1066    6.00000    1.93987  67.7%     -  572s
     0     0    1.93988    0 1071    6.00000    1.93988  67.7%     -  577s
     0     0    1.94101    0 1063    6.00000    1.94101  67.6%     -  586s
     0     0    1.94102    0 1063    6.00000    1.94102  67.6%     -  607s
     0     0    1.94180    0 1079    6.00000    1.94180  67.6%     -  615s
     0     0    1.94184    0 1049    6.00000    1.94184  67.6%     -  714s
     0     0    1.94279    0 1072    6.00000    1.94279  67.6%     -  723s
     0     0    1.94279    0 1072    6.00000    1.94279  67.6%     -  724s
     0     2    1.94279    0 1071    6.00000    1.94279  67.6%     - 2160s
     1     4    1.94287    1 1092    6.00000    1.94281  67.6%   839 2183s
     3     6    1.94300    2 1076    6.00000    1.94287  67.6%  3592 2189s
     5     8    1.94316    3 1041    6.00000    1.94287  67.6%  2666 2193s
     7     8    1.94362    4 1024    6.00000    1.94287  67.6%  2300 2200s
    11    12    1.94421    6 1007    6.00000    1.94287  67.6%  1735 2206s
    15    16    1.94504    8  970    6.00000    1.94287  67.6%  1484 2213s
    17    18    1.94530    9  960    6.00000    1.94287  67.6%  1397 2215s
    22    23    1.94595   11  931    6.00000    1.94287  67.6%  1211 2220s
    26    27    1.94691   13  889    6.00000    1.94287  67.6%  1130 2314s
    29    30    1.94795   14  882    6.00000    1.94287  67.6%  1082 2317s
    32    33    1.94920   15  848    6.00000    1.94287  67.6%  1029 2321s
    35    36    1.95168   16  843    6.00000    1.94287  67.6%  1019 2326s
    41    42    1.95295   18  829    6.00000    1.94287  67.6%   951 2332s
    44    45    1.95447   19  814    6.00000    1.94287  67.6%   931 2337s
    47    48    1.95823   20  784    6.00000    1.94287  67.6%   918 2341s
    53    54    1.96487   22  749    6.00000    1.94287  67.6%   890 2348s
    56    57    1.97534   23  736    6.00000    1.94287  67.6%   884 2711s
    58    59    1.98800   24  718    6.00000    1.94287  67.6%   883 2718s
    63    64    2.01477   26  692    6.00000    1.94287  67.6%   864 2723s
    68    69    2.05350   28  673    6.00000    1.94287  67.6%   847 2731s
    75    76    2.15114   31  718    6.00000    1.94287  67.6%   818 2736s
    83    84    2.30588   35  594    6.00000    1.94287  67.6%   788 2742s
    97    98    2.78087   44  465    6.00000    1.94287  67.6%   730 2747s
   114   115    3.09224   54  241    6.00000    1.94287  67.6%   659 2751s
   138   139    3.81633   66  125    6.00000    1.94287  67.6%   576 2756s
   166   163    4.89007   79  294    6.00000    1.94303  67.6%   505 2776s
   190   184    2.79811    3 1305    6.00000    1.94303  67.6%   503 2781s
   211   204    2.80260    4 1298    6.00000    1.94303  67.6%   461 2803s
   216   207    2.80917    6 1232    6.00000    1.94303  67.6%   497 2808s
   219   211    2.81524    8 1201    6.00000    1.94303  67.6%   500 2813s
   223   213    2.82103   10 1172    6.00000    1.94303  67.6%   501 2816s
   227   217    2.82454   12 1162    6.00000    1.94303  67.6%   501 2821s
   233   223    2.83491   15 1166    6.00000    1.94303  67.6%   501 2826s
   239   229    2.83984   17 1123    6.00000    1.94303  67.6%   498 2830s
   245   235    2.85109   21 1081    6.00000    1.94303  67.6%   500 2835s
   259   249    2.87172   27 1119    6.00000    1.94303  67.6%   495 2844s
   266   256    2.88376   30 1088    6.00000    1.94303  67.6%   494 2850s
   274   264    2.89868   34 1053    6.00000    1.94303  67.6%   491 2855s
   284   274    2.91686   39 1013    6.00000    1.94303  67.6%   487 2861s
   296   286    2.94518   45  905    6.00000    1.94303  67.6%   482 2867s
   314   304    3.00722   53  803    6.00000    1.94303  67.6%   469 2874s
   333   324    3.09814   61 1015    6.00000    1.94303  67.6%   457 3225s
   355   345    3.25105   72  866    6.00000    1.94303  67.6%   441 3236s
   420   402    3.66935  106  540    6.00000    1.94366  67.6%   403 3262s
   505   483    2.77786    4 1362    6.00000    1.94366  67.6%   368 3284s
   509   486    2.78604    6 1330    6.00000    1.94366  67.6%   384 3292s
   515   490    2.79704   10 1252    6.00000    1.94366  67.6%   388 3298s
   525   499    2.80528   15 1211    6.00000    1.94366  67.6%   388 3307s
   535   509    2.81823   21 1166    6.00000    1.94366  67.6%   389 3315s
   547   521    2.83169   26 1162    6.00000    1.94366  67.6%   389 3324s
   562   536    2.85758   33 1085    6.00000    1.94366  67.6%   388 3335s
   568   542    2.86740   36 1041    6.00000    1.94366  67.6%   388 3344s
   586   560    2.90832   44  974    6.00000    1.94366  67.6%   387 3353s
   613   588    3.00340   56  804    6.00000    1.94366  67.6%   383 3369s
   681   646    3.35250   74  708    6.00000    1.94423  67.6%   367 3406s
   767   723    3.91870  120 1072    6.00000    1.94430  67.6%   360 3468s
   769   724    2.79166   10 1431    6.00000    1.94430  67.6%   359 3488s

Cutting planes:
  Zero half: 51

Explored 769 nodes (360326 simplex iterations) in 3600.15 seconds
Thread count was 4 (of 4 available processors)

Solution count 2: 6 7 

Time limit reached
Best objective 6.000000000000e+00, best bound 2.000000000000e+00, gap 66.6667%
